1 1 2 0
1 3 -4 0
1 -3 -5 0
1 -6 -7 0
1 -1 6 0
1 -8 0
1 -8 9 0
1 10 0
1 -2 0
1 11 12 0
1 -6 2 0
1 -13 0
1 -9 -6 0
1 -3 7 0
1 6 -3 0
1 9 -7 0
1 14 0
1 -7 -15 0
1 6 15 0
1 1 0
1 -16 8 0
1 -3 9 0
1 -6 5 0
1 9 6 0
1 -6 3 0
1 -17 0
1 3 -18 0
1 -7 1 0
1 -19 0
1 -20 -19 0
1 21 0
1 -22 0
1 -23 -17 0
1 -9 7 0
1 -15 9 0
1 13 -12 0
1 23 0
1 1 -9 0
1 -23 -6 0
1 -1 -24 0
1 23 -15 0
1 -3 -9 0
1 18 -5 0
1 6 3 0
1 -5 -12 0
1 -15 -25 0
1 15 3 0
1 -1 -10 0
1 10 17 0
1 -26 -5 0
1 -7 -5 0
1 -3 1 0
1 23 -10 0
1 -11 19 0
1 -26 -20 0
1 23 5 0
1 -9 27 0
1 9 21 0
1 -1 -25 0
1 21 28 0
1 -6 -17 0
1 14 -7 0
1 -15 -1 0
1 1 3 0
1 -6 -8 0
1 -5 -14 0
1 28 7 0
1 1 23 0
1 -29 -3 0
1 -29 -6 0
1 -5 -19 0
1 1 -3 0
1 -7 -18 0
1 -5 -7 0
1 -6 21 0
1 28 -16 0
1 -24 5 0
1 -26 0
1 -15 -16 0
1 9 5 0
1 -4 -1 0
1 7 19 0
1 9 7 0
1 -9 0
1 1 -20 0
1 -5 15 0
1 -17 7 0
1 -20 0
1 -1 29 0
1 15 11 0
1 6 -1 0
1 25 6 0
1 -22 1 0
1 2 -1 0
1 4 -6 0
1 7 6 0
1 -3 -13 0
1 7 1 0
1 -20 6 0
1 16 0
1 27 0
1 -1 3 0
1 6 17 0
1 1 26 0
1 19 28 0
1 28 0
1 8 -6 0
1 1 6 0
1 15 -7 0
1 7 13 0
1 20 9 0
1 -2 3 0
1 12 0
1 20 15 0
1 -6 -18 0
1 17 -23 0
1 3 7 0
1 -15 -14 0
1 -5 9 0
1 17 7 0
1 15 18 0
1 1 27 0
1 -19 -9 0
1 -17 2 0
1 15 29 0
1 -21 24 0
1 -15 16 0
1 5 -1 0
1 -7 8 0
1 9 15 0
1 30 31 0
1 -6 -32 0
1 33 -34 0
1 30 -32 0
1 -4 0
1 -35 0
1 31 36 0
1 -6 13 0
1 -3 0
1 -33 -13 0
1 22 1 0
1 -36 31 0
1 36 37 0
1 32 30 0
1 34 4 0
1 6 0
1 34 -7 0
1 -24 0
1 -25 0
1 -32 33 0
1 -9 -33 0
1 32 -34 0
1 7 15 0
1 36 31 0
1 -34 -2 0
1 15 0
1 -36 7 0
1 1 31 0
1 -38 0
1 -34 -35 0
1 33 32 0
1 31 -30 0
1 31 -7 0
1 34 35 0
1 -33 34 0
1 30 0
1 31 -9 0
1 15 31 0
1 -9 31 0
1 -16 -7 0
1 -5 0
1 32 31 0
1 34 30 0
1 -28 34 0
1 -36 0
1 -7 15 0
1 31 0
1 36 32 0
1 -7 31 0
1 -33 0
1 33 -17 0
1 -32 -15 0
1 -15 32 0
1 -36 -30 0
1 -34 -6 0
1 -34 -27 0
1 -32 -30 0
1 32 10 0
1 23 -6 0
1 15 -33 0
1 -1 15 0
1 30 33 0
1 34 -21 0
1 2 32 0
1 30 15 0
1 31 25 0
1 31 -27 0
1 -37 0
1 39 0
1 -32 0
1 -39 -30 0
1 -40 0
1 -27 -1 0
1 30 -39 0
1 -31 4 0
1 -25 6 0
1 -1 -33 0
1 31 -3 0
1 34 -22 0
1 -15 33 0
1 -16 14 0
1 38 -31 0
1 -31 -34 0
1 -31 -36 0
1 -29 0
1 34 16 0
1 34 11 0
1 -34 31 0
1 6 27 0
1 30 -36 0
1 -3 -33 0
1 36 -33 0
1 -19 -32 0
1 31 33 0
1 33 6 0
1 -30 -34 0
1 24 -31 0
1 36 -5 0
1 -33 -32 0
1 15 40 0
1 -32 9 0
1 -34 32 0
1 18 0
1 34 -31 0
1 34 0
1 34 31 0
1 -30 -33 0
1 -33 20 0
1 26 -10 0
1 -36 -25 0
1 -32 25 0
1 35 6 0
1 -15 31 0
1 -33 1 0
1 -29 33 0
1 36 10 0
1 -34 33 0
1 38 -30 0
1 7 0
1 40 31 0
1 -37 -30 0
1 34 3 0
1 32 6 0
1 32 4 0
h 41 -8 0
1 -41 0
h 42 -33 0
1 -42 0
h -11 15 0
h 11 -15 0
h 43 -13 0
1 -43 0
